c   #vars: 129   #clauses: 571   #literals: 1536
c 
p cnf 129 571
2 -71 128 129 0
21 22 41 42 0
21 22 116 117 0
23 -82 107 108 0
-3 -4 0
-5 -6 0
41 42 124 125 0
-7 -8 0
-9 -10 0
-11 -12 0
-13 -14 0
-15 -16 0
-17 -18 0
-19 -20 0
-21 -22 0
3 4 32 -69 0
-24 -25 0
57 58 82 83 0
82 83 116 117 0
-26 -27 0
-28 -29 0
-30 -31 0
7 8 77 -95 0
-33 -34 0
-35 -36 0
-37 -38 0
-39 -40 0
114 115 124 125 0
24 25 124 125 0
-41 -42 0
-43 -44 0
-45 -46 0
-47 -48 0
-49 -50 0
-51 -52 0
-53 -54 0
-55 -56 0
-57 -58 0
-59 -60 0
-61 -62 0
-63 -64 0
-65 -66 0
-67 -68 0
-69 -70 0
-71 -72 0
-73 -74 0
-75 -76 0
24 25 90 -99 0
-78 -79 0
-80 -81 0
-82 -83 0
93 94 102 103 0
21 22 43 44 0
91 92 107 108 0
-84 -85 0
-86 -87 0
-88 -89 0
88 89 -90 99 0
75 76 82 83 0
-91 -92 0
-93 -94 0
-95 -96 0
-97 -98 0
-47 63 64 104 0
-100 -101 0
-102 -103 0
111 -112 120 121 0
-105 -106 0
-107 -108 0
-109 -110 0
24 25 116 117 0
-112 -113 0
-114 -115 0
-116 -117 0
-118 -119 0
-120 -121 0
3 4 100 101 0
-122 -123 0
-124 -125 0
9 10 124 125 0
-126 -127 0
17 18 24 25 0
-128 -129 0
21 22 118 119 0
2 -30 128 129 0
-1 -16 0
2 30 31 -71 0
2 71 72 -128 0
-1 -60 0
69 70 73 74 0
2 -30 71 72 0
-1 -94 0
19 20 84 85 0
63 64 88 89 0
23 -59 107 108 0
-2 -31 0
17 18 86 87 0
23 59 60 -107 0
-2 -72 0
11 12 28 29 0
23 59 60 -82 0
-2 -129 0
7 8 102 103 0
-3 -26 0
-4 -27 0
5 6 7 8 0
-3 -30 0
-4 -31 0
71 72 97 98 0
7 8 77 -91 0
-4 -32 0
49 50 90 -99 0
-3 -51 0
-4 -52 0
109 110 126 127 0
-3 -100 0
-4 -101 0
-3 -112 0
-4 -113 0
5 6 28 29 0
-5 -7 0
-6 -8 0
67 68 86 87 0
-5 -28 0
-6 -29 0
21 22 67 68 0
-5 -55 0
-6 -56 0
-5 -112 0
-6 -113 0
21 22 82 83 0
13 14 19 20 0
24 25 -49 90 0
-8 -77 0
-7 -86 0
-8 -87 0
11 12 105 106 0
-7 -102 0
-8 -103 0
45 46 102 103 0
-9 -33 0
-10 -34 0
26 27 61 62 0
-9 -57 0
-10 -58 0
17 18 124 125 0
-9 -91 0
-10 -92 0
11 12 109 110 0
-9 -107 0
-10 -108 0
47 48 57 58 0
-10 -111 0
-9 -118 0
-10 -119 0
65 66 126 127 0
-9 -124 0
-10 -125 0
11 12 15 16 0
-11 -15 0
-12 -16 0
15 16 93 94 0
-11 -28 0
-12 -29 0
2 30 31 -128 0
-11 -53 0
-12 -54 0
9 10 118 119 0
-11 -105 0
-12 -106 0
107 108 112 113 0
-11 -109 0
-12 -110 0
9 10 57 58 0
-13 -19 0
-14 -20 0
65 66 88 89 0
-13 -59 0
-14 -60 0
33 34 126 127 0
-13 -105 0
-14 -106 0
17 18 67 68 0
-13 -109 0
-14 -110 0
-24 -89 90 99 0
-15 -88 0
-16 -89 0
84 85 100 101 0
-15 -93 0
-16 -94 0
15 16 126 127 0
-15 -126 0
-16 -127 0
37 38 80 81 0
-17 -24 0
-18 -25 0
37 38 49 50 0
-17 -45 0
-18 -46 0
67 68 95 96 0
-17 -67 0
-18 -68 0
-17 -86 0
-18 -87 0
47 48 107 108 0
-17 -105 0
-18 -106 0
61 62 126 127 0
-17 -124 0
-18 -125 0
3 4 26 27 0
-19 -30 0
-20 -31 0
35 36 39 40 0
-19 -35 0
-20 -36 0
26 27 95 96 0
-19 -51 0
-20 -52 0
26 27 33 34 0
-19 -55 0
-20 -56 0
-19 -84 0
-20 -85 0
19 20 51 52 0
-21 -41 0
-22 -42 0
-21 -43 0
-22 -44 0
-49 -89 90 99 0
-21 -67 0
-22 -68 0
28 29 51 52 0
-21 -82 0
-22 -83 0
1 59 60 -93 0
-21 -109 0
-22 -110 0
57 58 120 121 0
-21 -116 0
-22 -117 0
84 85 122 123 0
-21 -118 0
-22 -119 0
59 60 82 83 0
3 4 32 -45 0
-23 -60 0
91 92 120 121 0
32 45 46 -69 0
-23 -83 0
-3 32 45 46 0
-23 -108 0
35 36 37 38 0
-24 -43 0
-25 -44 0
-42 -49 90 99 0
-42 88 89 99 0
-25 -90 0
-24 -116 0
-25 -117 0
49 50 75 76 0
-24 -124 0
-25 -125 0
19 20 35 36 0
61 62 100 101 0
-26 -33 0
-27 -34 0
26 27 41 42 0
-26 -41 0
-27 -42 0
41 42 100 101 0
-26 -57 0
-27 -58 0
-26 -61 0
-27 -62 0
95 96 97 98 0
-26 -95 0
-27 -96 0
41 42 55 56 0
-28 -51 0
-29 -52 0
30 31 124 125 0
-28 -86 0
-29 -87 0
30 31 55 56 0
-28 -91 0
-29 -92 0
32 -45 69 70 0
-28 -105 0
-29 -106 0
23 82 83 -107 0
-28 -114 0
-29 -115 0
24 25 43 44 0
-30 -37 0
-31 -38 0
26 27 57 58 0
-30 -55 0
-31 -56 0
37 38 69 70 0
9 10 91 92 0
1 -59 93 94 0
122 123 126 127 0
-30 -124 0
-31 -125 0
69 70 75 76 0
77 -91 95 96 0
-32 -46 0
86 87 102 103 0
-7 77 95 96 0
-32 -70 0
57 58 88 89 0
-33 -78 0
-34 -79 0
-33 -126 0
-34 -127 0
5 6 55 56 0
-35 -37 0
-36 -38 0
1 15 16 -59 0
-35 -39 0
-36 -40 0
80 81 82 83 0
-35 -97 0
-36 -98 0
1 16 -93 0
-37 -49 0
-38 -50 0
23 -59 82 83 0
-37 -69 0
-38 -70 0
63 64 84 85 0
-37 -80 0
-38 -81 0
-39 -69 0
-40 -70 0
28 29 114 115 0
-39 -80 0
-40 -81 0
33 34 78 79 0
-39 -122 0
-40 -123 0
9 10 33 34 0
3 4 51 52 0
-41 -55 0
-42 -56 0
-41 -99 0
-45 63 64 104 0
73 74 75 76 0
-41 -100 0
-42 -101 0
51 52 59 60 0
-41 -124 0
-42 -125 0
9 10 111 -112 0
-43 -78 0
-44 -79 0
1 -15 59 60 0
1 -15 94 0
-43 -102 0
-44 -103 0
-24 -42 90 99 0
-45 -97 0
-46 -98 0
-45 -102 0
-46 -103 0
-9 111 120 121 0
-46 -104 0
9 10 111 -120 0
-47 -57 0
-48 -58 0
3 4 112 113 0
-47 -65 0
-48 -66 0
49 50 116 117 0
111 112 113 -120 0
-48 -104 0
21 22 109 110 0
-47 -107 0
-48 -108 0
11 12 53 54 0
-49 -75 0
-50 -76 0
51 52 112 113 0
41 42 -90 99 0
-50 -90 0
53 54 128 129 0
-49 -97 0
-50 -98 0
53 54 73 74 0
-49 -116 0
-50 -117 0
35 36 97 98 0
-51 -59 0
-52 -60 0
-51 -63 0
-52 -64 0
19 20 55 56 0
-51 -112 0
-52 -113 0
13 14 59 60 0
-53 -61 0
-54 -62 0
39 40 80 81 0
-53 -73 0
-54 -74 0
-53 -78 0
-54 -79 0
17 18 45 46 0
-53 -128 0
-54 -129 0
49 50 97 98 0
-55 -95 0
-56 -96 0
86 87 128 129 0
-55 -114 0
-56 -115 0
61 62 122 123 0
-57 -82 0
-58 -83 0
53 54 61 62 0
-57 -88 0
-58 -89 0
61 62 114 115 0
-57 -120 0
-58 -121 0
75 76 116 117 0
-59 -82 0
-60 -83 0
67 68 91 92 0
-61 -100 0
-62 -101 0
28 29 91 92 0
-61 -114 0
-62 -115 0
77 91 92 -95 0
-61 -122 0
-62 -123 0
65 66 93 94 0
-61 -126 0
-62 -127 0
-7 77 91 92 0
-63 -84 0
-64 -85 0
43 44 102 103 0
-63 -88 0
-64 -89 0
17 18 105 106 0
-9 111 112 113 0
-64 -104 0
78 79 118 119 0
-65 -75 0
-66 -76 0
78 79 109 110 0
-65 -88 0
-66 -89 0
53 54 78 79 0
-65 -91 0
-66 -92 0
47 48 65 66 0
-65 -93 0
-66 -94 0
43 44 78 79 0
-65 -126 0
-66 -127 0
-67 -86 0
-68 -87 0
5 6 112 113 0
-67 -91 0
-68 -92 0
-67 -95 0
-68 -96 0
7 8 86 87 0
-69 -73 0
-70 -74 0
-69 -75 0
-70 -76 0
65 66 75 76 0
-71 -75 0
-72 -76 0
-71 -97 0
-72 -98 0
-3 32 69 70 0
-71 -122 0
-72 -123 0
-73 -75 0
-74 -76 0
28 29 105 106 0
-73 -105 0
-74 -106 0
71 72 75 76 0
-75 -80 0
-76 -81 0
28 29 86 87 0
-75 -82 0
-76 -83 0
120 121 128 129 0
-75 -116 0
-76 -117 0
15 16 88 89 0
45 46 -47 104 0
-77 -92 0
39 40 69 70 0
45 46 -63 104 0
-77 -96 0
78 79 88 89 0
-78 -88 0
-79 -89 0
65 66 91 92 0
-78 -109 0
-79 -110 0
71 72 122 123 0
-78 -118 0
-79 -119 0
3 4 30 31 0
-80 -82 0
-81 -83 0
-82 -116 0
-83 -117 0
13 14 105 106 0
-84 -100 0
-85 -101 0
75 76 80 81 0
-84 -122 0
-85 -123 0
73 74 105 106 0
-86 -102 0
-87 -103 0
39 40 122 123 0
-86 -118 0
-87 -119 0
55 56 114 115 0
-86 -128 0
-87 -129 0
55 56 95 96 0
-88 -99 0
47 48 -63 104 0
51 52 63 64 0
41 42 -89 99 0
-45 47 48 104 0
13 14 109 110 0
-91 -107 0
-92 -108 0
-91 -120 0
-92 -121 0
-24 49 50 90 0
-93 -102 0
-94 -103 0
45 46 97 98 0
-95 -97 0
-96 -98 0
9 10 107 108 0
-107 -112 0
-108 -113 0
-109 -126 0
-110 -127 0
19 20 30 31 0
-111 -113 0
-111 -121 0
112 113 116 117 0
-112 -116 0
-113 -117 0
86 87 118 119 0
-114 -124 0
-115 -125 0
30 31 37 38 0
-120 -128 0
-121 -129 0
-122 -126 0
-123 -127 0
